c description: Random 3-CNF over 16 variables and 68 clauses
c generator: CNFgen (0.9.2)
c copyright: (C) 2012-2022 Massimo Lauria <massimo.lauria@uniroma1.it>
c url: https://massimolauria.net/cnfgen
c command line: cnfgen --output CNF_4.28/16_bit_68_279.cnf randkcnf 3 16 68
c
p cnf 16 68
7 -8 13 0
5 7 12 0
7 -8 -12 0
-4 8 -15 0
-9 15 -16 0
-7 -8 -9 0
10 11 -12 0
2 -9 11 0
1 -4 -5 0
-12 -13 -16 0
-1 2 3 0
7 -8 16 0
-6 14 15 0
7 -13 -14 0
12 -14 16 0
1 11 15 0
-2 -6 -13 0
5 -11 -12 0
-4 -7 -12 0
2 -12 15 0
10 -15 -16 0
-10 -12 -16 0
3 -7 14 0
6 -7 -14 0
-1 5 16 0
4 -12 -15 0
-9 13 14 0
3 7 10 0
7 -9 14 0
2 -4 -11 0
9 15 16 0
-4 9 12 0
-4 -12 15 0
-12 -13 16 0
4 -5 -15 0
2 4 5 0
3 -9 13 0
7 8 10 0
4 -14 16 0
-1 6 -13 0
-1 -4 -6 0
-5 11 13 0
8 11 16 0
-8 -11 14 0
-1 -4 -8 0
1 6 11 0
-6 -9 15 0
-1 -6 -12 0
-7 12 15 0
7 14 15 0
1 3 11 0
-2 6 -15 0
4 -7 9 0
9 11 -15 0
-3 7 8 0
-8 13 14 0
-2 -13 -16 0
-5 -9 14 0
3 -5 -9 0
-5 -12 14 0
-1 -12 -14 0
-1 -9 -13 0
1 5 8 0
5 6 16 0
2 -13 14 0
-7 13 14 0
2 13 -15 0
1 3 10 0
